# Input settings for LAMMPS, generated by X. Cheng Aug. 2008, modified by
# X. Hu Nov. 2011

units           real

atom_style      full
bond_style      harmonic
angle_style     charmm
dihedral_style  charmm
pair_style      lj/charmm/coul/charmm 99 100
boundary        s s s

read_data       ../input/ts_dp_6_min.data

special_bonds   charmm
velocity        all create 0.0 12345678 dist uniform

thermo          1
thermo_style    multi
timestep        0.5
thermo_style    custom pe ebond eangle edihed eimp evdwl ecoul
thermo_modify   line multi format float %1.15e

# ar/run/vmblock-fuse/blockdir/35ec285e/tmp.data' 

# restart         10 tmp.restart1 tmp.restart2

# dump            1 all atom 10 tmp.dump
# dump            2 all custom 10 tmp.myforce tag fx fy fz

group           glc6mer id <= 129

dump            forces glc6mer custom 1 ts_dp_6_min.forces id fx fy fz
dump_modify     forces format "%5d %1.15e %1.15e %1.15e" sort id


run             0
